(set-logic QF_UF)
(declare-fun A0 () Bool)
(declare-fun A1 () Bool)
(declare-fun A2 () Bool)
(declare-fun A3 () Bool)
(declare-fun A4 () Bool)
(declare-fun A5 () Bool)
(declare-fun A6 () Bool)
(declare-fun A7 () Bool)
(declare-fun A8 () Bool)
(declare-fun A9 () Bool)
(declare-fun A10 () Bool)
(declare-fun A11 () Bool)
(declare-fun A12 () Bool)
(declare-fun A13 () Bool)
(declare-fun A14 () Bool)
(declare-fun A15 () Bool)
(declare-fun A16 () Bool)
(declare-fun A17 () Bool)
(declare-fun A18 () Bool)
(declare-fun A19 () Bool)
(declare-fun A20 () Bool)
(declare-fun A21 () Bool)
(declare-fun A22 () Bool)
(declare-fun A23 () Bool)
(declare-fun A24 () Bool)
(assert (let ((.def_0 (and A0 A21))) (let ((.def_1 (not .def_0))) (let ((.def_2 (not A2))) (let ((.def_3 (or A23 .def_2))) (let ((.def_4 (not .def_3))) (let ((.def_5 (or .def_4 .def_1))) (let ((.def_6 (not .def_5))) (let ((.def_7 (not A11))) (let ((.def_8 (and .def_7 A10))) (let ((.def_9 (or A10 A4))) (let ((.def_10 (not .def_9))) (let ((.def_11 (or .def_10 .def_8))) (let ((.def_12 (not .def_11))) (let ((.def_13 (or .def_12 .def_6))) (let ((.def_14 (not A8))) (let ((.def_15 (or .def_14 A7))) (let ((.def_16 (or A16 A7))) (let ((.def_17 (or .def_16 .def_15))) (let ((.def_18 (not .def_17))) (let ((.def_19 (or A4 A0))) (let ((.def_20 (not .def_19))) (let ((.def_21 (and A1 A9))) (let ((.def_22 (and .def_21 .def_20))) (let ((.def_23 (= .def_22 .def_18))) (let ((.def_24 (and .def_23 .def_13))) (let ((.def_25 (not A21))) (let ((.def_26 (not A19))) (let ((.def_27 (or .def_26 .def_25))) (let ((.def_28 (not .def_27))) (let ((.def_29 (or A11 A20))) (let ((.def_30 (and .def_29 .def_28))) (let ((.def_31 (not A12))) (let ((.def_32 (= A22 .def_31))) (let ((.def_33 (not .def_32))) (let ((.def_34 (or .def_25 .def_14))) (let ((.def_35 (and .def_34 .def_33))) (let ((.def_36 (not .def_35))) (let ((.def_37 (and .def_36 .def_30))) (let ((.def_38 (not A24))) (let ((.def_39 (and .def_38 A6))) (let ((.def_40 (not .def_39))) (let ((.def_41 (and A17 A14))) (let ((.def_42 (or .def_41 .def_40))) (let ((.def_43 (not .def_42))) (let ((.def_44 (not A10))) (let ((.def_45 (= .def_44 A22))) (let ((.def_46 (not A18))) (let ((.def_47 (or .def_46 .def_46))) (let ((.def_48 (and .def_47 .def_45))) (let ((.def_49 (not .def_48))) (let ((.def_50 (and .def_49 .def_43))) (let ((.def_51 (not .def_50))) (let ((.def_52 (= .def_51 .def_37))) (let ((.def_53 (not .def_52))) (let ((.def_54 (and .def_53 .def_24))) (let ((.def_55 (not .def_54))) (let ((.def_56 (not A6))) (let ((.def_57 (not A1))) (let ((.def_58 (= .def_57 .def_56))) (let ((.def_59 (and A24 A1))) (let ((.def_60 (not .def_59))) (let ((.def_61 (or .def_60 .def_58))) (let ((.def_62 (not .def_61))) (let ((.def_63 (and .def_14 .def_14))) (let ((.def_64 (not .def_63))) (let ((.def_65 (not A15))) (let ((.def_66 (and .def_46 .def_65))) (let ((.def_67 (not .def_66))) (let ((.def_68 (and .def_67 .def_64))) (let ((.def_69 (not .def_68))) (let ((.def_70 (and .def_69 .def_62))) (let ((.def_71 (= .def_44 A15))) (let ((.def_72 (and A2 A8))) (let ((.def_73 (or .def_72 .def_71))) (let ((.def_74 (or .def_2 A1))) (let ((.def_75 (not A16))) (let ((.def_76 (or .def_75 .def_65))) (let ((.def_77 (not .def_76))) (let ((.def_78 (or .def_77 .def_74))) (let ((.def_79 (not .def_78))) (let ((.def_80 (and .def_79 .def_73))) (let ((.def_81 (or .def_80 .def_70))) (let ((.def_82 (not .def_81))) (let ((.def_83 (and .def_31 A3))) (let ((.def_84 (not A20))) (let ((.def_85 (and .def_84 A8))) (let ((.def_86 (not .def_85))) (let ((.def_87 (= .def_86 .def_83))) (let ((.def_88 (and A3 A7))) (let ((.def_89 (or A3 .def_2))) (let ((.def_90 (not .def_89))) (let ((.def_91 (or .def_90 .def_88))) (let ((.def_92 (not .def_91))) (let ((.def_93 (or .def_92 .def_87))) (let ((.def_94 (not .def_93))) (let ((.def_95 (= .def_14 A1))) (let ((.def_96 (not A7))) (let ((.def_97 (and .def_96 A10))) (let ((.def_98 (or .def_97 .def_95))) (let ((.def_99 (and A24 A18))) (let ((.def_100 (not .def_99))) (let ((.def_101 (or A1 .def_31))) (let ((.def_102 (not .def_101))) (let ((.def_103 (and .def_102 .def_100))) (let ((.def_104 (not .def_103))) (let ((.def_105 (or .def_104 .def_98))) (let ((.def_106 (not .def_105))) (let ((.def_107 (or .def_106 .def_94))) (let ((.def_108 (not .def_107))) (let ((.def_109 (or .def_108 .def_82))) (let ((.def_110 (not .def_109))) (let ((.def_111 (and .def_110 .def_55))) (let ((.def_112 (not .def_111))) (let ((.def_113 (not A4))) (let ((.def_114 (or .def_113 .def_46))) (let ((.def_115 (or A17 A4))) (let ((.def_116 (not .def_115))) (let ((.def_117 (or .def_116 .def_114))) (let ((.def_118 (not .def_117))) (let ((.def_119 (and .def_14 .def_84))) (let ((.def_120 (not .def_119))) (let ((.def_121 (and .def_44 .def_26))) (let ((.def_122 (not .def_121))) (let ((.def_123 (or .def_122 .def_120))) (let ((.def_124 (and .def_123 .def_118))) (let ((.def_125 (and .def_56 A20))) (let ((.def_126 (not .def_125))) (let ((.def_127 (or A16 .def_113))) (let ((.def_128 (= .def_127 .def_126))) (let ((.def_129 (and A10 A20))) (let ((.def_130 (and A20 A6))) (let ((.def_131 (not .def_130))) (let ((.def_132 (and .def_131 .def_129))) (let ((.def_133 (or .def_132 .def_128))) (let ((.def_134 (not .def_133))) (let ((.def_135 (or .def_134 .def_124))) (let ((.def_136 (and A14 A16))) (let ((.def_137 (not .def_136))) (let ((.def_138 (not A9))) (let ((.def_139 (and A0 .def_138))) (let ((.def_140 (= .def_139 .def_137))) (let ((.def_141 (and A17 .def_7))) (let ((.def_142 (not .def_141))) (let ((.def_143 (not A23))) (let ((.def_144 (and .def_31 .def_143))) (let ((.def_145 (or .def_144 .def_142))) (let ((.def_146 (not .def_145))) (let ((.def_147 (and .def_146 .def_140))) (let ((.def_148 (= A3 A9))) (let ((.def_149 (= .def_14 .def_31))) (let ((.def_150 (not .def_149))) (let ((.def_151 (and .def_150 .def_148))) (let ((.def_152 (= A22 A13))) (let ((.def_153 (not .def_152))) (let ((.def_154 (= .def_96 .def_44))) (let ((.def_155 (or .def_154 .def_153))) (let ((.def_156 (and .def_155 .def_151))) (let ((.def_157 (not .def_156))) (let ((.def_158 (or .def_157 .def_147))) (let ((.def_159 (not .def_158))) (let ((.def_160 (and .def_159 .def_135))) (let ((.def_161 (not .def_160))) (let ((.def_162 (or A7 .def_46))) (let ((.def_163 (not .def_162))) (let ((.def_164 (or A0 A9))) (let ((.def_165 (not .def_164))) (let ((.def_166 (and .def_165 .def_163))) (let ((.def_167 (or A3 A10))) (let ((.def_168 (not .def_167))) (let ((.def_169 (and A5 .def_84))) (let ((.def_170 (or .def_169 .def_168))) (let ((.def_171 (not .def_170))) (let ((.def_172 (and .def_171 .def_166))) (let ((.def_173 (and .def_7 A9))) (let ((.def_174 (not A13))) (let ((.def_175 (or .def_174 .def_84))) (let ((.def_176 (not .def_175))) (let ((.def_177 (= .def_176 .def_173))) (let ((.def_178 (not .def_177))) (let ((.def_179 (or A10 A20))) (let ((.def_180 (not A17))) (let ((.def_181 (or A7 .def_180))) (let ((.def_182 (not .def_181))) (let ((.def_183 (and .def_182 .def_179))) (let ((.def_184 (and .def_183 .def_178))) (let ((.def_185 (or .def_184 .def_172))) (let ((.def_186 (not .def_185))) (let ((.def_187 (and .def_2 .def_31))) (let ((.def_188 (not .def_187))) (let ((.def_189 (or A3 A24))) (let ((.def_190 (and .def_189 .def_188))) (let ((.def_191 (or .def_2 .def_75))) (let ((.def_192 (not .def_191))) (let ((.def_193 (and .def_143 A17))) (let ((.def_194 (and .def_193 .def_192))) (let ((.def_195 (not .def_194))) (let ((.def_196 (and .def_195 .def_190))) (let ((.def_197 (and A13 .def_26))) (let ((.def_198 (not .def_197))) (let ((.def_199 (or .def_138 .def_57))) (let ((.def_200 (not .def_199))) (let ((.def_201 (or .def_200 .def_198))) (let ((.def_202 (not .def_201))) (let ((.def_203 (not A14))) (let ((.def_204 (or .def_203 .def_14))) (let ((.def_205 (not .def_204))) (let ((.def_206 (or A22 A8))) (let ((.def_207 (or .def_206 .def_205))) (let ((.def_208 (or .def_207 .def_202))) (let ((.def_209 (not .def_208))) (let ((.def_210 (and .def_209 .def_196))) (let ((.def_211 (or .def_210 .def_186))) (let ((.def_212 (not .def_211))) (let ((.def_213 (and .def_212 .def_161))) (let ((.def_214 (not .def_213))) (let ((.def_215 (or .def_214 .def_112))) (let ((.def_216 (and .def_174 .def_14))) (let ((.def_217 (or A12 A14))) (let ((.def_218 (not .def_217))) (let ((.def_219 (= .def_218 .def_216))) (let ((.def_220 (not .def_219))) (let ((.def_221 (or A22 A12))) (let ((.def_222 (not .def_221))) (let ((.def_223 (and .def_203 .def_174))) (let ((.def_224 (or .def_223 .def_222))) (let ((.def_225 (not .def_224))) (let ((.def_226 (or .def_225 .def_220))) (let ((.def_227 (not .def_226))) (let ((.def_228 (or A8 .def_65))) (let ((.def_229 (or .def_113 .def_56))) (let ((.def_230 (and .def_229 .def_228))) (let ((.def_231 (or A18 A24))) (let ((.def_232 (and .def_38 .def_44))) (let ((.def_233 (not .def_232))) (let ((.def_234 (and .def_233 .def_231))) (let ((.def_235 (not .def_234))) (let ((.def_236 (or .def_235 .def_230))) (let ((.def_237 (not .def_236))) (let ((.def_238 (and .def_237 .def_227))) (let ((.def_239 (or A4 A18))) (let ((.def_240 (not .def_239))) (let ((.def_241 (or A17 A14))) (let ((.def_242 (not .def_241))) (let ((.def_243 (or .def_242 .def_240))) (let ((.def_244 (= A5 .def_26))) (let ((.def_245 (or A19 .def_26))) (let ((.def_246 (not .def_245))) (let ((.def_247 (or .def_246 .def_244))) (let ((.def_248 (and .def_247 .def_243))) (let ((.def_249 (not .def_248))) (let ((.def_250 (= .def_174 .def_203))) (let ((.def_251 (not .def_250))) (let ((.def_252 (and .def_31 .def_26))) (let ((.def_253 (or .def_252 .def_251))) (let ((.def_254 (or A20 A13))) (let ((.def_255 (not .def_254))) (let ((.def_256 (= .def_113 .def_75))) (let ((.def_257 (not .def_256))) (let ((.def_258 (or .def_257 .def_255))) (let ((.def_259 (not .def_258))) (let ((.def_260 (and .def_259 .def_253))) (let ((.def_261 (not .def_260))) (let ((.def_262 (or .def_261 .def_249))) (let ((.def_263 (or .def_262 .def_238))) (let ((.def_264 (and A3 .def_174))) (let ((.def_265 (not A3))) (let ((.def_266 (or A7 .def_265))) (let ((.def_267 (not .def_266))) (let ((.def_268 (or .def_267 .def_264))) (let ((.def_269 (not .def_268))) (let ((.def_270 (and .def_265 A8))) (let ((.def_271 (= .def_31 A17))) (let ((.def_272 (or .def_271 .def_270))) (let ((.def_273 (not .def_272))) (let ((.def_274 (and .def_273 .def_269))) (let ((.def_275 (not .def_274))) (let ((.def_276 (= A22 A16))) (let ((.def_277 (or .def_26 .def_265))) (let ((.def_278 (and .def_277 .def_276))) (let ((.def_279 (or .def_138 .def_84))) (let ((.def_280 (not .def_279))) (let ((.def_281 (not A5))) (let ((.def_282 (and .def_281 A17))) (let ((.def_283 (or .def_282 .def_280))) (let ((.def_284 (and .def_283 .def_278))) (let ((.def_285 (not .def_284))) (let ((.def_286 (and .def_285 .def_275))) (let ((.def_287 (not .def_286))) (let ((.def_288 (and A10 .def_26))) (let ((.def_289 (or .def_31 A18))) (let ((.def_290 (not .def_289))) (let ((.def_291 (or .def_290 .def_288))) (let ((.def_292 (and .def_75 .def_84))) (let ((.def_293 (not .def_292))) (let ((.def_294 (= .def_180 A18))) (let ((.def_295 (or .def_294 .def_293))) (let ((.def_296 (and .def_295 .def_291))) (let ((.def_297 (not .def_296))) (let ((.def_298 (= A21 .def_2))) (let ((.def_299 (not .def_298))) (let ((.def_300 (or .def_84 A5))) (let ((.def_301 (or .def_300 .def_299))) (let ((.def_302 (not .def_301))) (let ((.def_303 (= A11 A23))) (let ((.def_304 (not .def_303))) (let ((.def_305 (or .def_281 A17))) (let ((.def_306 (not .def_305))) (let ((.def_307 (and .def_306 .def_304))) (let ((.def_308 (not .def_307))) (let ((.def_309 (or .def_308 .def_302))) (let ((.def_310 (not .def_309))) (let ((.def_311 (and .def_310 .def_297))) (let ((.def_312 (and .def_311 .def_287))) (let ((.def_313 (not .def_312))) (let ((.def_314 (or .def_313 .def_263))) (let ((.def_315 (not .def_314))) (let ((.def_316 (not A22))) (let ((.def_317 (and .def_316 A2))) (let ((.def_318 (or .def_143 A15))) (let ((.def_319 (not .def_318))) (let ((.def_320 (or .def_319 .def_317))) (let ((.def_321 (or .def_56 A21))) (let ((.def_322 (or .def_56 .def_38))) (let ((.def_323 (or .def_322 .def_321))) (let ((.def_324 (not .def_323))) (let ((.def_325 (= .def_324 .def_320))) (let ((.def_326 (not .def_325))) (let ((.def_327 (and A1 A1))) (let ((.def_328 (or A5 A8))) (let ((.def_329 (and .def_328 .def_327))) (let ((.def_330 (not .def_329))) (let ((.def_331 (and .def_265 .def_84))) (let ((.def_332 (not .def_331))) (let ((.def_333 (and A13 A20))) (let ((.def_334 (not .def_333))) (let ((.def_335 (or .def_334 .def_332))) (let ((.def_336 (and .def_335 .def_330))) (let ((.def_337 (and .def_336 .def_326))) (let ((.def_338 (and .def_138 .def_7))) (let ((.def_339 (and A8 A4))) (let ((.def_340 (not .def_339))) (let ((.def_341 (and .def_340 .def_338))) (let ((.def_342 (and A20 A14))) (let ((.def_343 (not .def_342))) (let ((.def_344 (or A20 .def_96))) (let ((.def_345 (and .def_344 .def_343))) (let ((.def_346 (not .def_345))) (let ((.def_347 (or .def_346 .def_341))) (let ((.def_348 (or .def_38 A15))) (let ((.def_349 (or .def_7 A1))) (let ((.def_350 (or .def_349 .def_348))) (let ((.def_351 (not .def_350))) (let ((.def_352 (or A12 .def_143))) (let ((.def_353 (= .def_113 .def_31))) (let ((.def_354 (not .def_353))) (let ((.def_355 (and .def_354 .def_352))) (let ((.def_356 (not .def_355))) (let ((.def_357 (and .def_356 .def_351))) (let ((.def_358 (and .def_357 .def_347))) (let ((.def_359 (and .def_358 .def_337))) (let ((.def_360 (not .def_359))) (let ((.def_361 (or A2 A1))) (let ((.def_362 (or A21 A14))) (let ((.def_363 (or .def_362 .def_361))) (let ((.def_364 (not .def_127))) (let ((.def_365 (and .def_203 A3))) (let ((.def_366 (and .def_365 .def_364))) (let ((.def_367 (and .def_366 .def_363))) (let ((.def_368 (not .def_367))) (let ((.def_369 (= A10 .def_26))) (let ((.def_370 (not .def_369))) (let ((.def_371 (and .def_25 A22))) (let ((.def_372 (and .def_371 .def_370))) (let ((.def_373 (not .def_372))) (let ((.def_374 (or A14 .def_14))) (let ((.def_375 (and .def_175 .def_374))) (let ((.def_376 (not .def_375))) (let ((.def_377 (= .def_376 .def_373))) (let ((.def_378 (not .def_377))) (let ((.def_379 (or .def_378 .def_368))) (let ((.def_380 (not .def_379))) (let ((.def_381 (and .def_14 .def_265))) (let ((.def_382 (and A10 A10))) (let ((.def_383 (not .def_382))) (let ((.def_384 (and .def_383 .def_381))) (let ((.def_385 (and .def_2 .def_138))) (let ((.def_386 (not .def_385))) (let ((.def_387 (and A3 .def_113))) (let ((.def_388 (and .def_387 .def_386))) (let ((.def_389 (or .def_388 .def_384))) (let ((.def_390 (not .def_389))) (let ((.def_391 (and .def_14 A22))) (let ((.def_392 (or .def_203 .def_113))) (let ((.def_393 (not .def_392))) (let ((.def_394 (or .def_393 .def_391))) (let ((.def_395 (not .def_394))) (let ((.def_396 (and .def_143 .def_203))) (let ((.def_397 (not .def_396))) (let ((.def_398 (not A0))) (let ((.def_399 (or .def_180 .def_398))) (let ((.def_400 (or .def_399 .def_397))) (let ((.def_401 (not .def_400))) (let ((.def_402 (= .def_401 .def_395))) (let ((.def_403 (not .def_402))) (let ((.def_404 (and .def_403 .def_390))) (let ((.def_405 (not .def_404))) (let ((.def_406 (and .def_405 .def_380))) (let ((.def_407 (and .def_406 .def_360))) (let ((.def_408 (or .def_407 .def_315))) (let ((.def_409 (= .def_408 .def_215))) (let ((.def_410 (not .def_409))) .def_410))))))))))))))))))))))))))))))))))))))))))))))))))))))))))))))))))))))))))))))))))))))))))))))))))))))))))))))))))))))))))))))))))))))))))))))))))))))))))))))))))))))))))))))))))))))))))))))))))))))))))))))))))))))))))))))))))))))))))))))))))))))))))))))))))))))))))))))))))))))))))))))))))))))))))))))))))))))))))))))))))))))))))))))))))))))))))))))))))))))))))))))))))))))))))))))))))))))))))))))))))))))))))))
(check-sat)
